33564 40741 
34342 40276 
33440 40921 
33576 40729 
34111 40444 
33948 40631 
33766 40671 
34467 40218 
33247 40967 
34661 40047 
35330 39591 
35132 39757 
36445 37837 
36325 38420 
36331 38311 
36643 37671 
36063 38797 
35418 39442 
35596 39345 
35210 39596 
35888 39130 
35015 39797 
34377 40251 
34559 40211 
34687 39964 
34159 40336 
34895 39810 
33975 40551 
34801 39859 
33522 40745 
34664 39978 
33164 41038 
32956 41192 
33492 40747 
33674 40707 
34202 40329 
34576 40062 
34873 39852 
34008 40500 
34690 39889 
33800 40654 
34120 40362 
33090 41072 
32996 41121 
33473 40840 
32690 41197 
32339 41407 
32645 41306 
32033 41483 
31847 41549 
31332 41615 
31515 41578 
30555 41647 
31873 41489 
